c turning on binary mode checking
c parsing input formula with 202048 variables and 780980 clauses
c finished parsing, read 19315223 bytes from proof file
c detected empty clause; start verification via backward checking
c 35562 of 780980 clauses in core                            
c 51481 of 503298 lemmas in core using 465988 resolution steps
c 0 RAT lemmas in core; 4542 redundant literals in core lemmas
s VERIFIED
c verification time: 3.460 seconds
